100 100 100
50
87 78 21
81 79 34
80 93 19
10 93 69
33 81 67
86 81 74
66 85 20
43 9 4
30 100 100
21 20 48
22 93 82
53 83 71
76 79 3
58 90 84
89 74 43
79 46 97
76 92 45
98 68 7
86 94 27
68 37 87
77 97 50
80 18 98
80 87 3
64 52 94
25 4 46
77 90 45
9 20 13
38 80 90
71 81 4
92 72 49
8 17 22
96 88 10
69 98 1
88 97 34
68 32 91
88 73 71
95 45 68
91 77 10
100 85 33
91 92 46
80 83 91
92 86 34
89 38 81
96 80 13
100 67 23
71 95 16
40 76 78
100 84 87
68 76 40
78 95 35
